p cnf 200 1700
-2 -6 0
-2 -3 0
-2 -11 0
-2 -4 0
-2 -16 0
-2 -5 0
-2 -21 0
-6 -3 0
-6 -11 0
-6 -4 0
-6 -16 0
-6 -5 0
-6 -21 0
-3 -11 0
-3 -4 0
-3 -16 0
-3 -5 0
-3 -21 0
-11 -4 0
-11 -16 0
-11 -5 0
-11 -21 0
-4 -16 0
-4 -5 0
-4 -21 0
-16 -5 0
-16 -21 0
-5 -21 0
-27 -31 0
-27 -28 0
-27 -36 0
-27 -29 0
-27 -41 0
-27 -30 0
-27 -46 0
-31 -28 0
-31 -36 0
-31 -29 0
-31 -41 0
-31 -30 0
-31 -46 0
-28 -36 0
-28 -29 0
-28 -41 0
-28 -30 0
-28 -46 0
-36 -29 0
-36 -41 0
-36 -30 0
-36 -46 0
-29 -41 0
-29 -30 0
-29 -46 0
-41 -30 0
-41 -46 0
-30 -46 0
-52 -56 0
-52 -53 0
-52 -61 0
-52 -54 0
-52 -66 0
-52 -55 0
-52 -71 0
-56 -53 0
-56 -61 0
-56 -54 0
-56 -66 0
-56 -55 0
-56 -71 0
-53 -61 0
-53 -54 0
-53 -66 0
-53 -55 0
-53 -71 0
-61 -54 0
-61 -66 0
-61 -55 0
-61 -71 0
-54 -66 0
-54 -55 0
-54 -71 0
-66 -55 0
-66 -71 0
-55 -71 0
-77 -81 0
-77 -78 0
-77 -86 0
-77 -79 0
-77 -91 0
-77 -80 0
-77 -96 0
-81 -78 0
-81 -86 0
-81 -79 0
-81 -91 0
-81 -80 0
-81 -96 0
-78 -86 0
-78 -79 0
-78 -91 0
-78 -80 0
-78 -96 0
-86 -79 0
-86 -91 0
-86 -80 0
-86 -96 0
-79 -91 0
-79 -80 0
-79 -96 0
-91 -80 0
-91 -96 0
-80 -96 0
-102 -106 0
-102 -103 0
-102 -111 0
-102 -104 0
-102 -116 0
-102 -105 0
-102 -121 0
-106 -103 0
-106 -111 0
-106 -104 0
-106 -116 0
-106 -105 0
-106 -121 0
-103 -111 0
-103 -104 0
-103 -116 0
-103 -105 0
-103 -121 0
-111 -104 0
-111 -116 0
-111 -105 0
-111 -121 0
-104 -116 0
-104 -105 0
-104 -121 0
-116 -105 0
-116 -121 0
-105 -121 0
-127 -131 0
-127 -128 0
-127 -136 0
-127 -129 0
-127 -141 0
-127 -130 0
-127 -146 0
-131 -128 0
-131 -136 0
-131 -129 0
-131 -141 0
-131 -130 0
-131 -146 0
-128 -136 0
-128 -129 0
-128 -141 0
-128 -130 0
-128 -146 0
-136 -129 0
-136 -141 0
-136 -130 0
-136 -146 0
-129 -141 0
-129 -130 0
-129 -146 0
-141 -130 0
-141 -146 0
-130 -146 0
-152 -156 0
-152 -153 0
-152 -161 0
-152 -154 0
-152 -166 0
-152 -155 0
-152 -171 0
-156 -153 0
-156 -161 0
-156 -154 0
-156 -166 0
-156 -155 0
-156 -171 0
-153 -161 0
-153 -154 0
-153 -166 0
-153 -155 0
-153 -171 0
-161 -154 0
-161 -166 0
-161 -155 0
-161 -171 0
-154 -166 0
-154 -155 0
-154 -171 0
-166 -155 0
-166 -171 0
-155 -171 0
-177 -181 0
-177 -178 0
-177 -186 0
-177 -179 0
-177 -191 0
-177 -180 0
-177 -196 0
-181 -178 0
-181 -186 0
-181 -179 0
-181 -191 0
-181 -180 0
-181 -196 0
-178 -186 0
-178 -179 0
-178 -191 0
-178 -180 0
-178 -196 0
-186 -179 0
-186 -191 0
-186 -180 0
-186 -196 0
-179 -191 0
-179 -180 0
-179 -196 0
-191 -180 0
-191 -196 0
-180 -196 0
-6 -2 0
-6 -8 0
-6 -12 0
-6 -9 0
-6 -17 0
-6 -10 0
-6 -22 0
-2 -8 0
-2 -12 0
-2 -9 0
-2 -17 0
-2 -10 0
-2 -22 0
-8 -12 0
-8 -9 0
-8 -17 0
-8 -10 0
-8 -22 0
-12 -9 0
-12 -17 0
-12 -10 0
-12 -22 0
-9 -17 0
-9 -10 0
-9 -22 0
-17 -10 0
-17 -22 0
-10 -22 0
-31 -27 0
-31 -33 0
-31 -37 0
-31 -34 0
-31 -42 0
-31 -35 0
-31 -47 0
-27 -33 0
-27 -37 0
-27 -34 0
-27 -42 0
-27 -35 0
-27 -47 0
-33 -37 0
-33 -34 0
-33 -42 0
-33 -35 0
-33 -47 0
-37 -34 0
-37 -42 0
-37 -35 0
-37 -47 0
-34 -42 0
-34 -35 0
-34 -47 0
-42 -35 0
-42 -47 0
-35 -47 0
-56 -52 0
-56 -58 0
-56 -62 0
-56 -59 0
-56 -67 0
-56 -60 0
-56 -72 0
-52 -58 0
-52 -62 0
-52 -59 0
-52 -67 0
-52 -60 0
-52 -72 0
-58 -62 0
-58 -59 0
-58 -67 0
-58 -60 0
-58 -72 0
-62 -59 0
-62 -67 0
-62 -60 0
-62 -72 0
-59 -67 0
-59 -60 0
-59 -72 0
-67 -60 0
-67 -72 0
-60 -72 0
-81 -77 0
-81 -83 0
-81 -87 0
-81 -84 0
-81 -92 0
-81 -85 0
-81 -97 0
-77 -83 0
-77 -87 0
-77 -84 0
-77 -92 0
-77 -85 0
-77 -97 0
-83 -87 0
-83 -84 0
-83 -92 0
-83 -85 0
-83 -97 0
-87 -84 0
-87 -92 0
-87 -85 0
-87 -97 0
-84 -92 0
-84 -85 0
-84 -97 0
-92 -85 0
-92 -97 0
-85 -97 0
-106 -102 0
-106 -108 0
-106 -112 0
-106 -109 0
-106 -117 0
-106 -110 0
-106 -122 0
-102 -108 0
-102 -112 0
-102 -109 0
-102 -117 0
-102 -110 0
-102 -122 0
-108 -112 0
-108 -109 0
-108 -117 0
-108 -110 0
-108 -122 0
-112 -109 0
-112 -117 0
-112 -110 0
-112 -122 0
-109 -117 0
-109 -110 0
-109 -122 0
-117 -110 0
-117 -122 0
-110 -122 0
-131 -127 0
-131 -133 0
-131 -137 0
-131 -134 0
-131 -142 0
-131 -135 0
-131 -147 0
-127 -133 0
-127 -137 0
-127 -134 0
-127 -142 0
-127 -135 0
-127 -147 0
-133 -137 0
-133 -134 0
-133 -142 0
-133 -135 0
-133 -147 0
-137 -134 0
-137 -142 0
-137 -135 0
-137 -147 0
-134 -142 0
-134 -135 0
-134 -147 0
-142 -135 0
-142 -147 0
-135 -147 0
-156 -152 0
-156 -158 0
-156 -162 0
-156 -159 0
-156 -167 0
-156 -160 0
-156 -172 0
-152 -158 0
-152 -162 0
-152 -159 0
-152 -167 0
-152 -160 0
-152 -172 0
-158 -162 0
-158 -159 0
-158 -167 0
-158 -160 0
-158 -172 0
-162 -159 0
-162 -167 0
-162 -160 0
-162 -172 0
-159 -167 0
-159 -160 0
-159 -172 0
-167 -160 0
-167 -172 0
-160 -172 0
-181 -177 0
-181 -183 0
-181 -187 0
-181 -184 0
-181 -192 0
-181 -185 0
-181 -197 0
-177 -183 0
-177 -187 0
-177 -184 0
-177 -192 0
-177 -185 0
-177 -197 0
-183 -187 0
-183 -184 0
-183 -192 0
-183 -185 0
-183 -197 0
-187 -184 0
-187 -192 0
-187 -185 0
-187 -197 0
-184 -192 0
-184 -185 0
-184 -197 0
-192 -185 0
-192 -197 0
-185 -197 0
-11 -3 0
-11 -12 0
-11 -8 0
-11 -14 0
-11 -18 0
-11 -15 0
-11 -23 0
-3 -12 0
-3 -8 0
-3 -14 0
-3 -18 0
-3 -15 0
-3 -23 0
-12 -8 0
-12 -14 0
-12 -18 0
-12 -15 0
-12 -23 0
-8 -14 0
-8 -18 0
-8 -15 0
-8 -23 0
-14 -18 0
-14 -15 0
-14 -23 0
-18 -15 0
-18 -23 0
-15 -23 0
-36 -28 0
-36 -37 0
-36 -33 0
-36 -39 0
-36 -43 0
-36 -40 0
-36 -48 0
-28 -37 0
-28 -33 0
-28 -39 0
-28 -43 0
-28 -40 0
-28 -48 0
-37 -33 0
-37 -39 0
-37 -43 0
-37 -40 0
-37 -48 0
-33 -39 0
-33 -43 0
-33 -40 0
-33 -48 0
-39 -43 0
-39 -40 0
-39 -48 0
-43 -40 0
-43 -48 0
-40 -48 0
-61 -53 0
-61 -62 0
-61 -58 0
-61 -64 0
-61 -68 0
-61 -65 0
-61 -73 0
-53 -62 0
-53 -58 0
-53 -64 0
-53 -68 0
-53 -65 0
-53 -73 0
-62 -58 0
-62 -64 0
-62 -68 0
-62 -65 0
-62 -73 0
-58 -64 0
-58 -68 0
-58 -65 0
-58 -73 0
-64 -68 0
-64 -65 0
-64 -73 0
-68 -65 0
-68 -73 0
-65 -73 0
-86 -78 0
-86 -87 0
-86 -83 0
-86 -89 0
-86 -93 0
-86 -90 0
-86 -98 0
-78 -87 0
-78 -83 0
-78 -89 0
-78 -93 0
-78 -90 0
-78 -98 0
-87 -83 0
-87 -89 0
-87 -93 0
-87 -90 0
-87 -98 0
-83 -89 0
-83 -93 0
-83 -90 0
-83 -98 0
-89 -93 0
-89 -90 0
-89 -98 0
-93 -90 0
-93 -98 0
-90 -98 0
-111 -103 0
-111 -112 0
-111 -108 0
-111 -114 0
-111 -118 0
-111 -115 0
-111 -123 0
-103 -112 0
-103 -108 0
-103 -114 0
-103 -118 0
-103 -115 0
-103 -123 0
-112 -108 0
-112 -114 0
-112 -118 0
-112 -115 0
-112 -123 0
-108 -114 0
-108 -118 0
-108 -115 0
-108 -123 0
-114 -118 0
-114 -115 0
-114 -123 0
-118 -115 0
-118 -123 0
-115 -123 0
-136 -128 0
-136 -137 0
-136 -133 0
-136 -139 0
-136 -143 0
-136 -140 0
-136 -148 0
-128 -137 0
-128 -133 0
-128 -139 0
-128 -143 0
-128 -140 0
-128 -148 0
-137 -133 0
-137 -139 0
-137 -143 0
-137 -140 0
-137 -148 0
-133 -139 0
-133 -143 0
-133 -140 0
-133 -148 0
-139 -143 0
-139 -140 0
-139 -148 0
-143 -140 0
-143 -148 0
-140 -148 0
-161 -153 0
-161 -162 0
-161 -158 0
-161 -164 0
-161 -168 0
-161 -165 0
-161 -173 0
-153 -162 0
-153 -158 0
-153 -164 0
-153 -168 0
-153 -165 0
-153 -173 0
-162 -158 0
-162 -164 0
-162 -168 0
-162 -165 0
-162 -173 0
-158 -164 0
-158 -168 0
-158 -165 0
-158 -173 0
-164 -168 0
-164 -165 0
-164 -173 0
-168 -165 0
-168 -173 0
-165 -173 0
-186 -178 0
-186 -187 0
-186 -183 0
-186 -189 0
-186 -193 0
-186 -190 0
-186 -198 0
-178 -187 0
-178 -183 0
-178 -189 0
-178 -193 0
-178 -190 0
-178 -198 0
-187 -183 0
-187 -189 0
-187 -193 0
-187 -190 0
-187 -198 0
-183 -189 0
-183 -193 0
-183 -190 0
-183 -198 0
-189 -193 0
-189 -190 0
-189 -198 0
-193 -190 0
-193 -198 0
-190 -198 0
-16 -4 0
-16 -17 0
-16 -9 0
-16 -18 0
-16 -14 0
-16 -20 0
-16 -24 0
-4 -17 0
-4 -9 0
-4 -18 0
-4 -14 0
-4 -20 0
-4 -24 0
-17 -9 0
-17 -18 0
-17 -14 0
-17 -20 0
-17 -24 0
-9 -18 0
-9 -14 0
-9 -20 0
-9 -24 0
-18 -14 0
-18 -20 0
-18 -24 0
-14 -20 0
-14 -24 0
-20 -24 0
-41 -29 0
-41 -42 0
-41 -34 0
-41 -43 0
-41 -39 0
-41 -45 0
-41 -49 0
-29 -42 0
-29 -34 0
-29 -43 0
-29 -39 0
-29 -45 0
-29 -49 0
-42 -34 0
-42 -43 0
-42 -39 0
-42 -45 0
-42 -49 0
-34 -43 0
-34 -39 0
-34 -45 0
-34 -49 0
-43 -39 0
-43 -45 0
-43 -49 0
-39 -45 0
-39 -49 0
-45 -49 0
-66 -54 0
-66 -67 0
-66 -59 0
-66 -68 0
-66 -64 0
-66 -70 0
-66 -74 0
-54 -67 0
-54 -59 0
-54 -68 0
-54 -64 0
-54 -70 0
-54 -74 0
-67 -59 0
-67 -68 0
-67 -64 0
-67 -70 0
-67 -74 0
-59 -68 0
-59 -64 0
-59 -70 0
-59 -74 0
-68 -64 0
-68 -70 0
-68 -74 0
-64 -70 0
-64 -74 0
-70 -74 0
-91 -79 0
-91 -92 0
-91 -84 0
-91 -93 0
-91 -89 0
-91 -95 0
-91 -99 0
-79 -92 0
-79 -84 0
-79 -93 0
-79 -89 0
-79 -95 0
-79 -99 0
-92 -84 0
-92 -93 0
-92 -89 0
-92 -95 0
-92 -99 0
-84 -93 0
-84 -89 0
-84 -95 0
-84 -99 0
-93 -89 0
-93 -95 0
-93 -99 0
-89 -95 0
-89 -99 0
-95 -99 0
-116 -104 0
-116 -117 0
-116 -109 0
-116 -118 0
-116 -114 0
-116 -120 0
-116 -124 0
-104 -117 0
-104 -109 0
-104 -118 0
-104 -114 0
-104 -120 0
-104 -124 0
-117 -109 0
-117 -118 0
-117 -114 0
-117 -120 0
-117 -124 0
-109 -118 0
-109 -114 0
-109 -120 0
-109 -124 0
-118 -114 0
-118 -120 0
-118 -124 0
-114 -120 0
-114 -124 0
-120 -124 0
-141 -129 0
-141 -142 0
-141 -134 0
-141 -143 0
-141 -139 0
-141 -145 0
-141 -149 0
-129 -142 0
-129 -134 0
-129 -143 0
-129 -139 0
-129 -145 0
-129 -149 0
-142 -134 0
-142 -143 0
-142 -139 0
-142 -145 0
-142 -149 0
-134 -143 0
-134 -139 0
-134 -145 0
-134 -149 0
-143 -139 0
-143 -145 0
-143 -149 0
-139 -145 0
-139 -149 0
-145 -149 0
-166 -154 0
-166 -167 0
-166 -159 0
-166 -168 0
-166 -164 0
-166 -170 0
-166 -174 0
-154 -167 0
-154 -159 0
-154 -168 0
-154 -164 0
-154 -170 0
-154 -174 0
-167 -159 0
-167 -168 0
-167 -164 0
-167 -170 0
-167 -174 0
-159 -168 0
-159 -164 0
-159 -170 0
-159 -174 0
-168 -164 0
-168 -170 0
-168 -174 0
-164 -170 0
-164 -174 0
-170 -174 0
-191 -179 0
-191 -192 0
-191 -184 0
-191 -193 0
-191 -189 0
-191 -195 0
-191 -199 0
-179 -192 0
-179 -184 0
-179 -193 0
-179 -189 0
-179 -195 0
-179 -199 0
-192 -184 0
-192 -193 0
-192 -189 0
-192 -195 0
-192 -199 0
-184 -193 0
-184 -189 0
-184 -195 0
-184 -199 0
-193 -189 0
-193 -195 0
-193 -199 0
-189 -195 0
-189 -199 0
-195 -199 0
-21 -5 0
-21 -22 0
-21 -10 0
-21 -23 0
-21 -15 0
-21 -24 0
-21 -20 0
-5 -22 0
-5 -10 0
-5 -23 0
-5 -15 0
-5 -24 0
-5 -20 0
-22 -10 0
-22 -23 0
-22 -15 0
-22 -24 0
-22 -20 0
-10 -23 0
-10 -15 0
-10 -24 0
-10 -20 0
-23 -15 0
-23 -24 0
-23 -20 0
-15 -24 0
-15 -20 0
-24 -20 0
-46 -30 0
-46 -47 0
-46 -35 0
-46 -48 0
-46 -40 0
-46 -49 0
-46 -45 0
-30 -47 0
-30 -35 0
-30 -48 0
-30 -40 0
-30 -49 0
-30 -45 0
-47 -35 0
-47 -48 0
-47 -40 0
-47 -49 0
-47 -45 0
-35 -48 0
-35 -40 0
-35 -49 0
-35 -45 0
-48 -40 0
-48 -49 0
-48 -45 0
-40 -49 0
-40 -45 0
-49 -45 0
-71 -55 0
-71 -72 0
-71 -60 0
-71 -73 0
-71 -65 0
-71 -74 0
-71 -70 0
-55 -72 0
-55 -60 0
-55 -73 0
-55 -65 0
-55 -74 0
-55 -70 0
-72 -60 0
-72 -73 0
-72 -65 0
-72 -74 0
-72 -70 0
-60 -73 0
-60 -65 0
-60 -74 0
-60 -70 0
-73 -65 0
-73 -74 0
-73 -70 0
-65 -74 0
-65 -70 0
-74 -70 0
-96 -80 0
-96 -97 0
-96 -85 0
-96 -98 0
-96 -90 0
-96 -99 0
-96 -95 0
-80 -97 0
-80 -85 0
-80 -98 0
-80 -90 0
-80 -99 0
-80 -95 0
-97 -85 0
-97 -98 0
-97 -90 0
-97 -99 0
-97 -95 0
-85 -98 0
-85 -90 0
-85 -99 0
-85 -95 0
-98 -90 0
-98 -99 0
-98 -95 0
-90 -99 0
-90 -95 0
-99 -95 0
-121 -105 0
-121 -122 0
-121 -110 0
-121 -123 0
-121 -115 0
-121 -124 0
-121 -120 0
-105 -122 0
-105 -110 0
-105 -123 0
-105 -115 0
-105 -124 0
-105 -120 0
-122 -110 0
-122 -123 0
-122 -115 0
-122 -124 0
-122 -120 0
-110 -123 0
-110 -115 0
-110 -124 0
-110 -120 0
-123 -115 0
-123 -124 0
-123 -120 0
-115 -124 0
-115 -120 0
-124 -120 0
-146 -130 0
-146 -147 0
-146 -135 0
-146 -148 0
-146 -140 0
-146 -149 0
-146 -145 0
-130 -147 0
-130 -135 0
-130 -148 0
-130 -140 0
-130 -149 0
-130 -145 0
-147 -135 0
-147 -148 0
-147 -140 0
-147 -149 0
-147 -145 0
-135 -148 0
-135 -140 0
-135 -149 0
-135 -145 0
-148 -140 0
-148 -149 0
-148 -145 0
-140 -149 0
-140 -145 0
-149 -145 0
-171 -155 0
-171 -172 0
-171 -160 0
-171 -173 0
-171 -165 0
-171 -174 0
-171 -170 0
-155 -172 0
-155 -160 0
-155 -173 0
-155 -165 0
-155 -174 0
-155 -170 0
-172 -160 0
-172 -173 0
-172 -165 0
-172 -174 0
-172 -170 0
-160 -173 0
-160 -165 0
-160 -174 0
-160 -170 0
-173 -165 0
-173 -174 0
-173 -170 0
-165 -174 0
-165 -170 0
-174 -170 0
-196 -180 0
-196 -197 0
-196 -185 0
-196 -198 0
-196 -190 0
-196 -199 0
-196 -195 0
-180 -197 0
-180 -185 0
-180 -198 0
-180 -190 0
-180 -199 0
-180 -195 0
-197 -185 0
-197 -198 0
-197 -190 0
-197 -199 0
-197 -195 0
-185 -198 0
-185 -190 0
-185 -199 0
-185 -195 0
-198 -190 0
-198 -199 0
-198 -195 0
-190 -199 0
-190 -195 0
-199 -195 0
-2 -27 0
-2 -52 0
-2 -77 0
-2 -102 0
-2 -127 0
-2 -152 0
-2 -177 0
-27 -52 0
-27 -77 0
-27 -102 0
-27 -127 0
-27 -152 0
-27 -177 0
-52 -77 0
-52 -102 0
-52 -127 0
-52 -152 0
-52 -177 0
-77 -102 0
-77 -127 0
-77 -152 0
-77 -177 0
-102 -127 0
-102 -152 0
-102 -177 0
-127 -152 0
-127 -177 0
-152 -177 0
2 27 52 77 102 127 152 177 0
-3 -28 0
-3 -53 0
-3 -78 0
-3 -103 0
-3 -128 0
-3 -153 0
-3 -178 0
-28 -53 0
-28 -78 0
-28 -103 0
-28 -128 0
-28 -153 0
-28 -178 0
-53 -78 0
-53 -103 0
-53 -128 0
-53 -153 0
-53 -178 0
-78 -103 0
-78 -128 0
-78 -153 0
-78 -178 0
-103 -128 0
-103 -153 0
-103 -178 0
-128 -153 0
-128 -178 0
-153 -178 0
3 28 53 78 103 128 153 178 0
-4 -29 0
-4 -54 0
-4 -79 0
-4 -104 0
-4 -129 0
-4 -154 0
-4 -179 0
-29 -54 0
-29 -79 0
-29 -104 0
-29 -129 0
-29 -154 0
-29 -179 0
-54 -79 0
-54 -104 0
-54 -129 0
-54 -154 0
-54 -179 0
-79 -104 0
-79 -129 0
-79 -154 0
-79 -179 0
-104 -129 0
-104 -154 0
-104 -179 0
-129 -154 0
-129 -179 0
-154 -179 0
4 29 54 79 104 129 154 179 0
-5 -30 0
-5 -55 0
-5 -80 0
-5 -105 0
-5 -130 0
-5 -155 0
-5 -180 0
-30 -55 0
-30 -80 0
-30 -105 0
-30 -130 0
-30 -155 0
-30 -180 0
-55 -80 0
-55 -105 0
-55 -130 0
-55 -155 0
-55 -180 0
-80 -105 0
-80 -130 0
-80 -155 0
-80 -180 0
-105 -130 0
-105 -155 0
-105 -180 0
-130 -155 0
-130 -180 0
-155 -180 0
5 30 55 80 105 130 155 180 0
-6 -31 0
-6 -56 0
-6 -81 0
-6 -106 0
-6 -131 0
-6 -156 0
-6 -181 0
-31 -56 0
-31 -81 0
-31 -106 0
-31 -131 0
-31 -156 0
-31 -181 0
-56 -81 0
-56 -106 0
-56 -131 0
-56 -156 0
-56 -181 0
-81 -106 0
-81 -131 0
-81 -156 0
-81 -181 0
-106 -131 0
-106 -156 0
-106 -181 0
-131 -156 0
-131 -181 0
-156 -181 0
6 31 56 81 106 131 156 181 0
-8 -33 0
-8 -58 0
-8 -83 0
-8 -108 0
-8 -133 0
-8 -158 0
-8 -183 0
-33 -58 0
-33 -83 0
-33 -108 0
-33 -133 0
-33 -158 0
-33 -183 0
-58 -83 0
-58 -108 0
-58 -133 0
-58 -158 0
-58 -183 0
-83 -108 0
-83 -133 0
-83 -158 0
-83 -183 0
-108 -133 0
-108 -158 0
-108 -183 0
-133 -158 0
-133 -183 0
-158 -183 0
8 33 58 83 108 133 158 183 0
-9 -34 0
-9 -59 0
-9 -84 0
-9 -109 0
-9 -134 0
-9 -159 0
-9 -184 0
-34 -59 0
-34 -84 0
-34 -109 0
-34 -134 0
-34 -159 0
-34 -184 0
-59 -84 0
-59 -109 0
-59 -134 0
-59 -159 0
-59 -184 0
-84 -109 0
-84 -134 0
-84 -159 0
-84 -184 0
-109 -134 0
-109 -159 0
-109 -184 0
-134 -159 0
-134 -184 0
-159 -184 0
9 34 59 84 109 134 159 184 0
-10 -35 0
-10 -60 0
-10 -85 0
-10 -110 0
-10 -135 0
-10 -160 0
-10 -185 0
-35 -60 0
-35 -85 0
-35 -110 0
-35 -135 0
-35 -160 0
-35 -185 0
-60 -85 0
-60 -110 0
-60 -135 0
-60 -160 0
-60 -185 0
-85 -110 0
-85 -135 0
-85 -160 0
-85 -185 0
-110 -135 0
-110 -160 0
-110 -185 0
-135 -160 0
-135 -185 0
-160 -185 0
10 35 60 85 110 135 160 185 0
-11 -36 0
-11 -61 0
-11 -86 0
-11 -111 0
-11 -136 0
-11 -161 0
-11 -186 0
-36 -61 0
-36 -86 0
-36 -111 0
-36 -136 0
-36 -161 0
-36 -186 0
-61 -86 0
-61 -111 0
-61 -136 0
-61 -161 0
-61 -186 0
-86 -111 0
-86 -136 0
-86 -161 0
-86 -186 0
-111 -136 0
-111 -161 0
-111 -186 0
-136 -161 0
-136 -186 0
-161 -186 0
11 36 61 86 111 136 161 186 0
-12 -37 0
-12 -62 0
-12 -87 0
-12 -112 0
-12 -137 0
-12 -162 0
-12 -187 0
-37 -62 0
-37 -87 0
-37 -112 0
-37 -137 0
-37 -162 0
-37 -187 0
-62 -87 0
-62 -112 0
-62 -137 0
-62 -162 0
-62 -187 0
-87 -112 0
-87 -137 0
-87 -162 0
-87 -187 0
-112 -137 0
-112 -162 0
-112 -187 0
-137 -162 0
-137 -187 0
-162 -187 0
12 37 62 87 112 137 162 187 0
-14 -39 0
-14 -64 0
-14 -89 0
-14 -114 0
-14 -139 0
-14 -164 0
-14 -189 0
-39 -64 0
-39 -89 0
-39 -114 0
-39 -139 0
-39 -164 0
-39 -189 0
-64 -89 0
-64 -114 0
-64 -139 0
-64 -164 0
-64 -189 0
-89 -114 0
-89 -139 0
-89 -164 0
-89 -189 0
-114 -139 0
-114 -164 0
-114 -189 0
-139 -164 0
-139 -189 0
-164 -189 0
14 39 64 89 114 139 164 189 0
-15 -40 0
-15 -65 0
-15 -90 0
-15 -115 0
-15 -140 0
-15 -165 0
-15 -190 0
-40 -65 0
-40 -90 0
-40 -115 0
-40 -140 0
-40 -165 0
-40 -190 0
-65 -90 0
-65 -115 0
-65 -140 0
-65 -165 0
-65 -190 0
-90 -115 0
-90 -140 0
-90 -165 0
-90 -190 0
-115 -140 0
-115 -165 0
-115 -190 0
-140 -165 0
-140 -190 0
-165 -190 0
15 40 65 90 115 140 165 190 0
-16 -41 0
-16 -66 0
-16 -91 0
-16 -116 0
-16 -141 0
-16 -166 0
-16 -191 0
-41 -66 0
-41 -91 0
-41 -116 0
-41 -141 0
-41 -166 0
-41 -191 0
-66 -91 0
-66 -116 0
-66 -141 0
-66 -166 0
-66 -191 0
-91 -116 0
-91 -141 0
-91 -166 0
-91 -191 0
-116 -141 0
-116 -166 0
-116 -191 0
-141 -166 0
-141 -191 0
-166 -191 0
16 41 66 91 116 141 166 191 0
-17 -42 0
-17 -67 0
-17 -92 0
-17 -117 0
-17 -142 0
-17 -167 0
-17 -192 0
-42 -67 0
-42 -92 0
-42 -117 0
-42 -142 0
-42 -167 0
-42 -192 0
-67 -92 0
-67 -117 0
-67 -142 0
-67 -167 0
-67 -192 0
-92 -117 0
-92 -142 0
-92 -167 0
-92 -192 0
-117 -142 0
-117 -167 0
-117 -192 0
-142 -167 0
-142 -192 0
-167 -192 0
17 42 67 92 117 142 167 192 0
-18 -43 0
-18 -68 0
-18 -93 0
-18 -118 0
-18 -143 0
-18 -168 0
-18 -193 0
-43 -68 0
-43 -93 0
-43 -118 0
-43 -143 0
-43 -168 0
-43 -193 0
-68 -93 0
-68 -118 0
-68 -143 0
-68 -168 0
-68 -193 0
-93 -118 0
-93 -143 0
-93 -168 0
-93 -193 0
-118 -143 0
-118 -168 0
-118 -193 0
-143 -168 0
-143 -193 0
-168 -193 0
18 43 68 93 118 143 168 193 0
-20 -45 0
-20 -70 0
-20 -95 0
-20 -120 0
-20 -145 0
-20 -170 0
-20 -195 0
-45 -70 0
-45 -95 0
-45 -120 0
-45 -145 0
-45 -170 0
-45 -195 0
-70 -95 0
-70 -120 0
-70 -145 0
-70 -170 0
-70 -195 0
-95 -120 0
-95 -145 0
-95 -170 0
-95 -195 0
-120 -145 0
-120 -170 0
-120 -195 0
-145 -170 0
-145 -195 0
-170 -195 0
20 45 70 95 120 145 170 195 0
-21 -46 0
-21 -71 0
-21 -96 0
-21 -121 0
-21 -146 0
-21 -171 0
-21 -196 0
-46 -71 0
-46 -96 0
-46 -121 0
-46 -146 0
-46 -171 0
-46 -196 0
-71 -96 0
-71 -121 0
-71 -146 0
-71 -171 0
-71 -196 0
-96 -121 0
-96 -146 0
-96 -171 0
-96 -196 0
-121 -146 0
-121 -171 0
-121 -196 0
-146 -171 0
-146 -196 0
-171 -196 0
21 46 71 96 121 146 171 196 0
-22 -47 0
-22 -72 0
-22 -97 0
-22 -122 0
-22 -147 0
-22 -172 0
-22 -197 0
-47 -72 0
-47 -97 0
-47 -122 0
-47 -147 0
-47 -172 0
-47 -197 0
-72 -97 0
-72 -122 0
-72 -147 0
-72 -172 0
-72 -197 0
-97 -122 0
-97 -147 0
-97 -172 0
-97 -197 0
-122 -147 0
-122 -172 0
-122 -197 0
-147 -172 0
-147 -197 0
-172 -197 0
22 47 72 97 122 147 172 197 0
-23 -48 0
-23 -73 0
-23 -98 0
-23 -123 0
-23 -148 0
-23 -173 0
-23 -198 0
-48 -73 0
-48 -98 0
-48 -123 0
-48 -148 0
-48 -173 0
-48 -198 0
-73 -98 0
-73 -123 0
-73 -148 0
-73 -173 0
-73 -198 0
-98 -123 0
-98 -148 0
-98 -173 0
-98 -198 0
-123 -148 0
-123 -173 0
-123 -198 0
-148 -173 0
-148 -198 0
-173 -198 0
23 48 73 98 123 148 173 198 0
-24 -49 0
-24 -74 0
-24 -99 0
-24 -124 0
-24 -149 0
-24 -174 0
-24 -199 0
-49 -74 0
-49 -99 0
-49 -124 0
-49 -149 0
-49 -174 0
-49 -199 0
-74 -99 0
-74 -124 0
-74 -149 0
-74 -174 0
-74 -199 0
-99 -124 0
-99 -149 0
-99 -174 0
-99 -199 0
-124 -149 0
-124 -174 0
-124 -199 0
-149 -174 0
-149 -199 0
-174 -199 0
24 49 74 99 124 149 174 199 0
